; PUSH cw_2 SWAP1 SLOAD SWAP1 => SLOAD PUSH cw_2
(set-option :produce-proofs true)
; 
(set-info :status unknown)
(declare-fun storage_t ((_ BitVec 256) (_ BitVec 256) (_ BitVec 256) Int (_ BitVec 256)) (_ BitVec 256))
(declare-fun w_2 () (_ BitVec 256))
(declare-fun storage_s ((_ BitVec 256) (_ BitVec 256) (_ BitVec 256) Int (_ BitVec 256)) (_ BitVec 256))
(declare-fun exc_halt_t (Int) Bool)
(declare-fun exc_halt_s (Int) Bool)
(declare-fun sc_t (Int) (_ BitVec 6))
(declare-fun stack_t ((_ BitVec 256) (_ BitVec 256) (_ BitVec 256) Int (_ BitVec 6)) (_ BitVec 256))
(declare-fun stack_s ((_ BitVec 256) (_ BitVec 256) (_ BitVec 256) Int (_ BitVec 6)) (_ BitVec 256))
(declare-fun sc_s (Int) (_ BitVec 6))
(declare-fun used_gas_t ((_ BitVec 256) (_ BitVec 256) (_ BitVec 256) Int) Int)
(declare-fun used_gas_s ((_ BitVec 256) (_ BitVec 256) (_ BitVec 256) Int) Int)
(assert
 (exists ((x_0 (_ BitVec 256)) (x_SLOAD_0 (_ BitVec 256)) )(let (($x8865 (forall ((w (_ BitVec 256)) )(let ((?x9196 (storage_t x_0 x_SLOAD_0 w_2 2 w)))
 (let ((?x7027 (storage_s x_0 x_SLOAD_0 w_2 4 w)))
 (= ?x7027 ?x9196))))
 ))
 (let (($x6842 (exc_halt_t 2)))
 (let (($x9175 (exc_halt_s 4)))
 (let (($x4445 (= $x9175 $x6842)))
 (let (($x11284 (forall ((n (_ BitVec 6)) )(let ((?x9666 (sc_t 2)))
 (let (($x6374 (bvsle ?x9666 n)))
 (let ((?x4365 (stack_t x_0 x_SLOAD_0 w_2 2 n)))
 (let ((?x7365 (stack_s x_0 x_SLOAD_0 w_2 4 n)))
 (let (($x2243 (= ?x7365 ?x4365)))
 (or $x2243 $x6374)))))))
 ))
 (let ((?x9666 (sc_t 2)))
 (let ((?x9433 (sc_s 4)))
 (let (($x2152 (= ?x9433 ?x9666)))
 (let ((?x9444 (used_gas_t x_0 x_SLOAD_0 w_2 0)))
 (let ((?x35 (used_gas_s x_0 x_SLOAD_0 w_2 0)))
 (let (($x11027 (= ?x35 ?x9444)))
 (let (($x5960 (forall ((w (_ BitVec 256)) )(let ((?x2701 (storage_t x_0 x_SLOAD_0 w_2 0 w)))
 (let ((?x7545 (storage_s x_0 x_SLOAD_0 w_2 0 w)))
 (= ?x7545 ?x2701))))
 ))
 (let (($x56 (exc_halt_t 0)))
 (let (($x57 (exc_halt_s 0)))
 (let (($x58 (= $x57 $x56)))
 (let (($x5844 (forall ((n (_ BitVec 6)) )(let ((?x4923 (stack_t x_0 x_SLOAD_0 w_2 0 n)))
 (let ((?x1962 (stack_s x_0 x_SLOAD_0 w_2 0 n)))
 (let (($x8248 (= ?x1962 ?x4923)))
 (let ((?x63 (sc_t 0)))
 (let (($x3918 (bvsle ?x63 n)))
 (or $x3918 $x8248)))))))
 ))
 (let ((?x63 (sc_t 0)))
 (let ((?x72 (sc_s 0)))
 (let (($x73 (= ?x72 ?x63)))
 (let (($x8403 (not (= ((_ extract 6 6) (bvadd (_ bv1 7) (concat (_ bv0 1) (sc_t 1)))) (_ bv0 1)))))
 (let (($x11030 (exc_halt_t 1)))
 (let (($x6419 (= $x6842 (or $x11030 $x8403))))
 (let (($x7253 (forall ((w (_ BitVec 256)) )(let ((?x9018 (storage_t x_0 x_SLOAD_0 w_2 1 w)))
 (let ((?x9196 (storage_t x_0 x_SLOAD_0 w_2 2 w)))
 (= ?x9196 ?x9018))))
 ))
 (let (($x2843 (forall ((n (_ BitVec 6)) )(let ((?x7520 (stack_t x_0 x_SLOAD_0 w_2 1 n)))
 (let ((?x4365 (stack_t x_0 x_SLOAD_0 w_2 2 n)))
 (let ((?x4135 (sc_t 1)))
 (let (($x3402 (bvsle ?x4135 n)))
 (or $x3402 (= ?x4365 ?x7520)))))))
 ))
 (let (($x9818 (= ?x9666 (bvadd (_ bv1 6) (sc_t 1)))))
 (let (($x6293 (= (used_gas_t x_0 x_SLOAD_0 w_2 2) (+ 3 (used_gas_t x_0 x_SLOAD_0 w_2 1)))))
 (let (($x9978 (forall ((w (_ BitVec 256)) )(let ((?x2701 (storage_t x_0 x_SLOAD_0 w_2 0 w)))
 (let ((?x9018 (storage_t x_0 x_SLOAD_0 w_2 1 w)))
 (= ?x9018 ?x2701))))
 ))
 (let (($x2836 (forall ((n (_ BitVec 6)) )(let ((?x63 (sc_t 0)))
 (let ((?x6168 (bvadd (_ bv63 6) ?x63)))
 (let (($x5589 (bvsle ?x6168 n)))
 (let ((?x4923 (stack_t x_0 x_SLOAD_0 w_2 0 n)))
 (let ((?x7520 (stack_t x_0 x_SLOAD_0 w_2 1 n)))
 (or (= ?x7520 ?x4923) $x5589)))))))
 ))
 (let ((?x4135 (sc_t 1)))
 (let (($x2586 (= ?x4135 ?x63)))
 (let ((?x9165 (storage_t x_0 x_SLOAD_0 w_2 0 (stack_t x_0 x_SLOAD_0 w_2 0 (bvadd (_ bv63 6) ?x63)))))
 (let (($x7924 (= $x9175 (or (exc_halt_s 3) (not (bvsle (_ bv0 6) (bvadd (_ bv62 6) (sc_s 3))))))))
 (let (($x10179 (forall ((w (_ BitVec 256)) )(let ((?x5495 (storage_s x_0 x_SLOAD_0 w_2 3 w)))
 (let ((?x7027 (storage_s x_0 x_SLOAD_0 w_2 4 w)))
 (= ?x7027 ?x5495))))
 ))
 (let (($x2402 (forall ((n (_ BitVec 6)) )(let ((?x3851 (sc_s 3)))
 (let ((?x6235 (bvadd (_ bv62 6) ?x3851)))
 (let (($x11846 (bvsle ?x6235 n)))
 (let ((?x10835 (stack_s x_0 x_SLOAD_0 w_2 3 n)))
 (let ((?x7365 (stack_s x_0 x_SLOAD_0 w_2 4 n)))
 (or (= ?x7365 ?x10835) $x11846)))))))
 ))
 (let ((?x3851 (sc_s 3)))
 (let (($x7570 (= ?x9433 ?x3851)))
 (let (($x1967 (= (used_gas_s x_0 x_SLOAD_0 w_2 4) (+ 3 (used_gas_s x_0 x_SLOAD_0 w_2 3)))))
 (let ((?x9078 (bvadd (_ bv63 6) ?x3851)))
 (let ((?x7432 (stack_s x_0 x_SLOAD_0 w_2 3 ?x9078)))
 (let (($x2894 (= (stack_s x_0 x_SLOAD_0 w_2 4 (bvadd (_ bv63 6) ?x9433)) (stack_s x_0 x_SLOAD_0 w_2 3 (bvadd (_ bv62 6) ?x3851)))))
 (let (($x8103 (exc_halt_s 3)))
 (let (($x10693 (= $x8103 (or (exc_halt_s 2) (not (bvsle (_ bv0 6) (bvadd (_ bv63 6) (sc_s 2))))))))
 (let (($x3564 (forall ((w (_ BitVec 256)) )(let ((?x5093 (storage_s x_0 x_SLOAD_0 w_2 2 w)))
 (let ((?x5495 (storage_s x_0 x_SLOAD_0 w_2 3 w)))
 (= ?x5495 ?x5093))))
 ))
 (let (($x109 (forall ((n (_ BitVec 6)) )(let ((?x2083 (stack_s x_0 x_SLOAD_0 w_2 2 n)))
 (let ((?x10835 (stack_s x_0 x_SLOAD_0 w_2 3 n)))
 (or (bvsle (bvadd (_ bv63 6) (sc_s 2)) n) (= ?x10835 ?x2083)))))
 ))
 (let ((?x2272 (sc_s 2)))
 (let (($x599 (= ?x3851 ?x2272)))
 (let ((?x4902 (used_gas_s x_0 x_SLOAD_0 w_2 3)))
 (let ((?x3887 (bvadd (_ bv63 6) ?x2272)))
 (let ((?x9035 (stack_s x_0 x_SLOAD_0 w_2 2 ?x3887)))
 (let (($x10052 (exc_halt_s 2)))
 (let (($x6078 (= $x10052 (or (exc_halt_s 1) (not (bvsle (_ bv0 6) (bvadd (_ bv62 6) (sc_s 1))))))))
 (let (($x8464 (forall ((w (_ BitVec 256)) )(let ((?x4222 (storage_s x_0 x_SLOAD_0 w_2 1 w)))
 (let ((?x5093 (storage_s x_0 x_SLOAD_0 w_2 2 w)))
 (= ?x5093 ?x4222))))
 ))
 (let (($x2102 (forall ((n (_ BitVec 6)) )(let ((?x154 (sc_s 1)))
 (let ((?x6387 (bvadd (_ bv62 6) ?x154)))
 (let (($x1752 (bvsle ?x6387 n)))
 (let ((?x7024 (stack_s x_0 x_SLOAD_0 w_2 1 n)))
 (let ((?x2083 (stack_s x_0 x_SLOAD_0 w_2 2 n)))
 (or (= ?x2083 ?x7024) $x1752)))))))
 ))
 (let ((?x154 (sc_s 1)))
 (let (($x6737 (= ?x2272 ?x154)))
 (let ((?x6774 (used_gas_s x_0 x_SLOAD_0 w_2 2)))
 (let (($x3480 (= (stack_s x_0 x_SLOAD_0 w_2 2 (bvadd (_ bv62 6) ?x2272)) (stack_s x_0 x_SLOAD_0 w_2 1 (bvadd (_ bv63 6) ?x154)))))
 (let (($x8780 (exc_halt_s 1)))
 (let (($x11279 (= $x8780 (or $x57 (not (= ((_ extract 6 6) (bvadd (_ bv1 7) (concat (_ bv0 1) ?x72))) (_ bv0 1)))))))
 (let (($x6486 (forall ((w (_ BitVec 256)) )(let ((?x7545 (storage_s x_0 x_SLOAD_0 w_2 0 w)))
 (let ((?x4222 (storage_s x_0 x_SLOAD_0 w_2 1 w)))
 (= ?x4222 ?x7545))))
 ))
 (let (($x1206 (forall ((n (_ BitVec 6)) )(let ((?x72 (sc_s 0)))
 (let (($x5715 (bvsle ?x72 n)))
 (let ((?x1962 (stack_s x_0 x_SLOAD_0 w_2 0 n)))
 (let ((?x7024 (stack_s x_0 x_SLOAD_0 w_2 1 n)))
 (or (= ?x7024 ?x1962) $x5715))))))
 ))
 (let (($x11116 (= ?x154 (bvadd (_ bv1 6) ?x72))))
 (let (($x7962 (forall ((w (_ BitVec 256)) )(let ((?x3121 (ite (= w (stack_s x_0 x_SLOAD_0 w_2 2 (bvadd (_ bv63 6) (sc_s 2)))) x_SLOAD_0 (_ bv0 256))))
 (let ((?x7545 (storage_s x_0 x_SLOAD_0 w_2 0 w)))
 (= ?x7545 ?x3121))))
 ))
 (let (($x2327 (= ?x35 0)))
 (let (($x2113 (not $x57)))
 (let (($x10056 (= (stack_s x_0 x_SLOAD_0 w_2 0 (_ bv0 6)) x_0)))
 (let (($x7461 (= ?x72 (_ bv1 6))))
 (and $x7461 $x10056 $x2113 $x2327 $x7962 (= (stack_s x_0 x_SLOAD_0 w_2 1 ?x72) w_2) (= (used_gas_s x_0 x_SLOAD_0 w_2 1) (+ 3 ?x35)) $x11116 $x1206 $x6486 $x11279 (= ?x9035 (stack_s x_0 x_SLOAD_0 w_2 1 (bvadd (_ bv62 6) ?x154))) $x3480 (= ?x6774 (+ 3 (used_gas_s x_0 x_SLOAD_0 w_2 1))) $x6737 $x2102 $x8464 $x6078 (= ?x7432 (storage_s x_0 x_SLOAD_0 w_2 2 ?x9035)) (= ?x4902 (+ 200 ?x6774)) $x599 $x109 $x3564 $x10693 $x2894 (= (stack_s x_0 x_SLOAD_0 w_2 4 (bvadd (_ bv62 6) ?x9433)) ?x7432) $x1967 $x7570 $x2402 $x10179 $x7924 (= (stack_t x_0 x_SLOAD_0 w_2 1 (bvadd (_ bv63 6) ?x4135)) ?x9165) (= (used_gas_t x_0 x_SLOAD_0 w_2 1) (+ 200 ?x9444)) $x2586 $x2836 $x9978 (= $x11030 (or $x56 (not (bvsle (_ bv0 6) (bvadd (_ bv63 6) ?x63))))) (= (stack_t x_0 x_SLOAD_0 w_2 2 ?x4135) w_2) $x6293 $x9818 $x2843 $x7253 $x6419 $x73 $x5844 $x58 $x5960 $x11027 (not (and $x2152 $x11284 $x4445 $x8865)))))))))))))))))))))))))))))))))))))))))))))))))))))))))))))))))))))))
 )
(check-sat)
(get-proof)
